(declare-fun var76923 () (_ BitVec 64))
(declare-fun ARGNAME_i1_NAMEEND_DIM () (_ BitVec 64))
(declare-fun ARGNAME_expand1_NAMEEND_LEN () (_ BitVec 64))
(declare-fun var76924 () (_ BitVec 64))
(declare-fun ARGNAME_unroll_dim_NAMEEND () (_ BitVec 64))
(declare-fun var76925 () (_ BitVec 64))
(declare-fun temp914_1 () (_ BitVec 64))
(declare-fun var76926 () (_ BitVec 64))
(declare-fun var76927 () (_ BitVec 64))
(declare-fun temp914_2 () (_ BitVec 64))
(declare-fun temp914_3 () (_ BitVec 64))
(declare-fun var76928 () (_ BitVec 64))
(declare-fun k!0 () (_ BitVec 64))
(declare-fun k!1 () Bool)
(declare-fun var269666 () (_ BitVec 64))
(declare-fun temp914_4 () (_ BitVec 64))
(declare-fun var269695 () (_ BitVec 64))
(declare-fun temp914_5 () (_ BitVec 64))
(declare-fun temp914_7 () (_ BitVec 64))
(declare-fun temp914_6 () (_ BitVec 64))
(declare-fun temp914_9 () (_ BitVec 64))
(declare-fun temp914_8 () (_ BitVec 64))
(declare-fun temp914_10 () (_ BitVec 64))
(declare-fun var862370 () (_ BitVec 64))
(declare-fun var927917 () (_ BitVec 64))
(declare-fun temp914_11 () (_ BitVec 64))
(declare-fun var1713223 () (_ BitVec 64))
(declare-fun var2104674 () (_ BitVec 64))
(declare-fun temp914_12 () (_ BitVec 64))
(declare-fun var2104703 () (_ BitVec 64))
(declare-fun temp914_13 () (_ BitVec 64))
(declare-fun temp914_15 () (_ BitVec 64))
(declare-fun temp914_14 () (_ BitVec 64))
(declare-fun temp914_17 () (_ BitVec 64))
(declare-fun temp914_16 () (_ BitVec 64))
(declare-fun temp914_18 () (_ BitVec 64))
(declare-fun var2697378 () (_ BitVec 64))
(declare-fun var2762925 () (_ BitVec 64))
(declare-fun temp914_19 () (_ BitVec 64))
(declare-fun var3548231 () (_ BitVec 64))
(declare-fun var3939682 () (_ BitVec 64))
(declare-fun temp914_20 () (_ BitVec 64))
(declare-fun var3939711 () (_ BitVec 64))
(declare-fun temp914_21 () (_ BitVec 64))
(declare-fun temp914_23 () (_ BitVec 64))
(declare-fun temp914_22 () (_ BitVec 64))
(declare-fun temp914_25 () (_ BitVec 64))
(declare-fun temp914_24 () (_ BitVec 64))
(declare-fun temp914_26 () (_ BitVec 64))
(declare-fun var4532386 () (_ BitVec 64))
(declare-fun var4597933 () (_ BitVec 64))
(declare-fun temp914_27 () (_ BitVec 64))
(declare-fun var5383239 () (_ BitVec 64))
(declare-fun var5774690 () (_ BitVec 64))
(declare-fun temp914_28 () (_ BitVec 64))
(declare-fun var5774719 () (_ BitVec 64))
(declare-fun temp914_29 () (_ BitVec 64))
(declare-fun temp914_31 () (_ BitVec 64))
(declare-fun temp914_30 () (_ BitVec 64))
(declare-fun temp914_33 () (_ BitVec 64))
(declare-fun temp914_32 () (_ BitVec 64))
(declare-fun temp914_34 () (_ BitVec 64))
(declare-fun var6367394 () (_ BitVec 64))
(declare-fun var6432941 () (_ BitVec 64))
(declare-fun temp914_35 () (_ BitVec 64))
(declare-fun var7218247 () (_ BitVec 64))
(declare-fun var8461836 () (_ BitVec 64))
(declare-fun temp914_37 () (_ BitVec 64))
(declare-fun temp914_36 () (_ BitVec 64))
(declare-fun var8524787 () (_ BitVec 64))
(declare-fun var8524788 () (_ BitVec 64))
(declare-fun temp914_38 () (_ BitVec 64))
(declare-fun temp914_39 () (_ BitVec 64))
(declare-fun var8594453 () (_ BitVec 64))
(declare-fun var8660000 () (_ BitVec 64))
(declare-fun var8461854 () (_ BitVec 64))
(declare-fun temp914_40 () (_ BitVec 64))
(declare-fun var77094 () (_ BitVec 64))
(declare-fun temp914_41 () (_ BitVec 64))
(declare-fun var77135 () (_ BitVec 64))
(declare-fun var77169 () (_ BitVec 64))
(declare-fun var77223 () (_ BitVec 64))
(declare-fun temp914_42 () (_ BitVec 64))
(declare-fun var11608541 () (_ BitVec 64))
(declare-fun temp914_43 () (_ BitVec 64))
(declare-fun ARGNAME_i1_NAMEEND_NUMELEMENT () (_ BitVec 64))
(declare-fun var77268 () (_ BitVec 64))
(declare-fun temp914_44 () (_ BitVec 64))
(declare-fun temp914_45 () (_ BitVec 64))
(declare-fun ARGNAME_i2_NAMEEND_NUMELEMENT () (_ BitVec 64))
(declare-fun var77272 () (_ BitVec 64))
(declare-fun temp914_46 () (_ BitVec 64))
(declare-fun temp914_47 () (_ BitVec 64))
(declare-fun ARGNAME_i3_NAMEEND_NUMELEMENT () (_ BitVec 64))
(declare-fun var77276 () (_ BitVec 64))
(declare-fun temp914_48 () (_ BitVec 64))
(declare-fun temp914_50 () (_ BitVec 64))
(declare-fun temp914_49 () (_ BitVec 64))
(declare-fun temp914_51 () (_ BitVec 64))
(declare-fun var14885909 () (_ BitVec 64))
(declare-fun var14951456 () (_ BitVec 64))
(declare-fun var14753310 () (_ BitVec 64))
(declare-fun temp914_52 () (_ BitVec 64))
(declare-fun var15347757 () (_ BitVec 64))
(declare-fun temp914_53 () (_ BitVec 64))
(declare-fun var15413293 () (_ BitVec 64))
(declare-fun temp914_54 () (_ BitVec 64))
(declare-fun var15937581 () (_ BitVec 64))
(declare-fun temp914_56 () (_ BitVec 64))
(declare-fun temp914_55 () (_ BitVec 64))
(declare-fun temp914_57 () (_ BitVec 64))
(declare-fun var17049762 () (_ BitVec 64))
(declare-fun temp914_58 () (_ BitVec 64))
(declare-fun var17704007 () (_ BitVec 64))
(declare-fun temp914_60 () (_ BitVec 64))
(declare-fun temp914_59 () (_ BitVec 64))
(declare-fun temp914_61 () (_ BitVec 64))
(declare-fun var18686997 () (_ BitVec 64))
(declare-fun var18752544 () (_ BitVec 64))
(declare-fun temp914_62 () (_ BitVec 64))
(declare-fun var16258794 () (_ BitVec 64))
(declare-fun var16258764 () (_ BitVec 64))
(declare-fun var16258763 () (_ BitVec 64))
(declare-fun temp914_64 () (_ BitVec 64))
(declare-fun temp914_63 () (_ BitVec 64))
(declare-fun temp914_65 () (_ BitVec 64))
(declare-fun var16259205 () (_ BitVec 64))
(declare-fun var16259284 () (_ BitVec 64))
(declare-fun var16259303 () (_ BitVec 64))
(declare-fun var16259338 () (_ BitVec 64))
(declare-fun temp914_66 () (_ BitVec 64))
(declare-fun var16259339 () (_ BitVec 64))
(declare-fun temp914_68 () (_ BitVec 64))
(declare-fun temp914_67 () (_ BitVec 64))
(declare-fun temp914_70 () (_ BitVec 64))
(declare-fun temp914_69 () (_ BitVec 64))
(assert (= var76923 (bvadd ARGNAME_expand1_NAMEEND_LEN ARGNAME_i1_NAMEEND_DIM)))
(assert (= var76924
   (ite (bvsle var76923 ARGNAME_unroll_dim_NAMEEND)
        #x0000000000000001
        #x0000000000000000)))
(assert (= var76925 var76924))
(assert (= temp914_1 #x000000000000003f))
(assert (= var76926 (bvlshr ARGNAME_unroll_dim_NAMEEND temp914_1)))
(assert (= var76927 (bvor var76926 var76925)))
(assert (= temp914_2 #x0000000000000000))
(assert (= var76928 (ite (= var76927 temp914_2) #x0000000000000001 #x0000000000000000)))
(assert (= temp914_3 #x0000000000000001))
(assert (= var76928 temp914_3))
(assert (= var269666 var76923))
(assert (= temp914_4 #x0000000000000040))
(assert (= var269695
   (ite (bvsgt var269666 temp914_4) #x0000000000000001 #x0000000000000000)))
(assert (= temp914_5 #x0000000000000000))
(assert (= var269695 temp914_5))
(assert (= temp914_7 #x0000000000000000))
(assert (= temp914_6 temp914_7))
(assert (= temp914_9 #x0000000000000000))
(assert (= temp914_8 temp914_9))
(assert (= temp914_10 #x0000000000000000))
(assert (= var862370 temp914_10))
(assert (= var927917 var862370))
(assert (= temp914_11 #x0000000000000001))
(assert (= var1713223 temp914_11))
(assert (= var2104674 var76923))
(assert (= temp914_12 #x0000000000000040))
(assert (= var2104703
   (ite (bvsgt var2104674 temp914_12) #x0000000000000001 #x0000000000000000)))
(assert (= temp914_13 #x0000000000000000))
(assert (= var2104703 temp914_13))
(assert (= temp914_15 #x0000000000000000))
(assert (= temp914_14 temp914_15))
(assert (= temp914_17 #x0000000000000000))
(assert (= temp914_16 temp914_17))
(assert (= temp914_18 #x0000000000000000))
(assert (= var2697378 temp914_18))
(assert (= var2762925 var2697378))
(assert (= temp914_19 #x0000000000000001))
(assert (= var3548231 temp914_19))
(assert (= var3939682 var76923))
(assert (= temp914_20 #x0000000000000040))
(assert (= var3939711
   (ite (bvsgt var3939682 temp914_20) #x0000000000000001 #x0000000000000000)))
(assert (= temp914_21 #x0000000000000000))
(assert (= var3939711 temp914_21))
(assert (= temp914_23 #x0000000000000000))
(assert (= temp914_22 temp914_23))
(assert (= temp914_25 #x0000000000000000))
(assert (= temp914_24 temp914_25))
(assert (= temp914_26 #x0000000000000000))
(assert (= var4532386 temp914_26))
(assert (= var4597933 var4532386))
(assert (= temp914_27 #x0000000000000001))
(assert (= var5383239 temp914_27))
(assert (= var5774690 var76923))
(assert (= temp914_28 #x0000000000000040))
(assert (= var5774719
   (ite (bvsgt var5774690 temp914_28) #x0000000000000001 #x0000000000000000)))
(assert (= temp914_29 #x0000000000000000))
(assert (= var5774719 temp914_29))
(assert (= temp914_31 #x0000000000000000))
(assert (= temp914_30 temp914_31))
(assert (= temp914_33 #x0000000000000000))
(assert (= temp914_32 temp914_33))
(assert (= temp914_34 #x0000000000000000))
(assert (= var6367394 temp914_34))
(assert (= var6432941 var6367394))
(assert (= temp914_35 #x0000000000000001))
(assert (= var7218247 temp914_35))
(assert (= var8461836 var76923))
(assert (= temp914_37 #x0000000000000000))
(assert (= temp914_36 temp914_37))
(assert (= var8524787 var8461836))
(assert (= var8524788
   (ite (bvslt temp914_36 var8524787) #x0000000000000001 #x0000000000000000)))
(assert (= temp914_38 (ite (= var8524788 #x0000000000000001) var8461836 temp914_36)))
(assert (= temp914_39 #x0000000000000000))
(assert (= var8594453 temp914_39))
(assert (= var8660000 var8594453))
(assert (= var8461854 var8660000))
(assert (= temp914_40 #xffffffffffffffff))
(assert (= var77094 temp914_40))
(assert (= temp914_41 #x0000000000000000))
(assert (= var77135 temp914_41))
(assert (= var77169 var77135))
(assert (= var77223 var77169))
(assert (= temp914_42 #x0000000000000001))
(assert (= var11608541 temp914_42))
(assert (= temp914_43 #x0000000000000000))
(assert (= var77268
   (ite (= ARGNAME_i1_NAMEEND_NUMELEMENT temp914_43)
        #x0000000000000001
        #x0000000000000000)))
(assert (= temp914_44 #x0000000000000000))
(assert (= var77268 temp914_44))
(assert (= temp914_45 #x0000000000000000))
(assert (= var77272
   (ite (= ARGNAME_i2_NAMEEND_NUMELEMENT temp914_45)
        #x0000000000000001
        #x0000000000000000)))
(assert (= temp914_46 #x0000000000000000))
(assert (= var77272 temp914_46))
(assert (= temp914_47 #x0000000000000000))
(assert (= var77276
   (ite (= ARGNAME_i3_NAMEEND_NUMELEMENT temp914_47)
        #x0000000000000001
        #x0000000000000000)))
(assert (= temp914_48 #x0000000000000000))
(assert (= var77276 temp914_48))
(assert (= temp914_50 #x0000000000000000))
(assert (= temp914_49 temp914_50))
(assert (= temp914_51 #x0000000000000000))
(assert (= var14885909 temp914_51))
(assert (= var14951456 var14885909))
(assert (= var14753310 var14951456))
(assert (= temp914_52 #x0000000000000001))
(assert (= var15347757 temp914_52))
(assert (= temp914_53 #x0000000000000001))
(assert (= var15413293 temp914_53))
(assert (= temp914_54 #x0000000000000001))
(assert (= var15937581 temp914_54))
(assert (= temp914_56 #x0000000000000000))
(assert (= temp914_55 temp914_56))
(assert (= temp914_57 #x0000000000000000))
(assert (= var17049762 temp914_57))
(assert (= temp914_58 #x0000000000000001))
(assert (= var17704007 temp914_58))
(assert (= temp914_60 #x0000000000000000))
(assert (= temp914_59 temp914_60))
(assert (= temp914_61 #x0000000000000000))
(assert (= var18686997 temp914_61))
(assert (= var18752544 var18686997))
(assert (= temp914_62 #x0000000000000001))
(assert (= var16258794 temp914_62))
(assert (= var16258764 var16258794))
(assert (= var16258763 var16258764))
(assert (= temp914_64 #xffffffffffffffff))
(assert (= temp914_63 temp914_64))
(assert (= temp914_65 #x0000000000000000))
(assert (= var16259205 temp914_65))
(assert (= var16259284 var16259205))
(assert (= var16259303 var16259284))
(assert (= var16259338 var16259303))
(assert (= temp914_66 #x0000000000000001))
(assert (= var16259339 (bvadd var16259338 temp914_66)))
(assert (= temp914_68 #x0000000000000003))
(assert (= temp914_67 temp914_68))
(assert (= temp914_70 #x0000000000000003))
(assert (= temp914_69 temp914_70))
(model-add var76923
           ()
           (_ BitVec 64)
           (bvadd ARGNAME_expand1_NAMEEND_LEN ARGNAME_i1_NAMEEND_DIM))
(model-add var76924
           ()
           (_ BitVec 64)
           (ite (bvsle (bvadd ARGNAME_expand1_NAMEEND_LEN
                              ARGNAME_i1_NAMEEND_DIM)
                       ARGNAME_unroll_dim_NAMEEND)
                #x0000000000000001
                #x0000000000000000))
(model-add var76925
           ()
           (_ BitVec 64)
           (ite (bvsle (bvadd ARGNAME_expand1_NAMEEND_LEN
                              ARGNAME_i1_NAMEEND_DIM)
                       ARGNAME_unroll_dim_NAMEEND)
                #x0000000000000001
                #x0000000000000000))
(model-add temp914_1 () (_ BitVec 64) #x000000000000003f)
(model-add var76926
           ()
           (_ BitVec 64)
           (concat #b000000000000000000000000000000000000000000000000000000000000000
                   ((_ extract 63 63) ARGNAME_unroll_dim_NAMEEND)))
(model-add var76927
           ()
           (_ BitVec 64)
           (bvor (concat #b000000000000000000000000000000000000000000000000000000000000000
                         ((_ extract 63 63) ARGNAME_unroll_dim_NAMEEND))
                 (ite (bvsle (bvadd ARGNAME_expand1_NAMEEND_LEN
                                    ARGNAME_i1_NAMEEND_DIM)
                             ARGNAME_unroll_dim_NAMEEND)
                      #x0000000000000001
                      #x0000000000000000)))
(model-add temp914_2 () (_ BitVec 64) #x0000000000000000)
(model-add temp914_3 () (_ BitVec 64) #x0000000000000001)
(model-add var76928 () (_ BitVec 64) #x0000000000000001)
(model-del k!0)
(model-add ARGNAME_expand1_NAMEEND_LEN
           ()
           (_ BitVec 64)
           (bvsub k!0 ARGNAME_i1_NAMEEND_DIM))
(model-del k!1)
(model-add k!0
           ()
           (_ BitVec 64)
           (ite (or k!1 (= ARGNAME_unroll_dim_NAMEEND #x7fffffffffffffff))
                ARGNAME_unroll_dim_NAMEEND
                (bvadd ARGNAME_unroll_dim_NAMEEND #x0000000000000001)))




